p wcnf 2000 200 1
1 1 0
1 2 0
1 3 0
1 4 0
1 5 0
1 6 0
1 7 0
1 8 0
1 9 0
1 10 0
1 11 0
1 12 0
1 1 1 1 1 1 1 2 2 2 2 2 0
1 2 2 2 2 2 2 2 2 2 2 2 0
1 2 2 2 2 3 3 3 3 3 3 3 0
1 3 3 3 3 3 3 3 3 3 3 3 0
1 3 3 3 3 3 3 3 3 3 3 3 0
1 4 4 4 4 4 4 4 4 4 4 4 0
1 4 4 4 4 4 4 4 4 4 4 4 0
1 5 5 5 5 5 5 5 5 5 5 5 0
1 5 5 5 5 5 5 5 5 5 5 5 0
1 5 5 5 5 6 6 6 6 6 6 6 0
1 6 6 6 6 6 6 6 6 7 7 7 0
1 7 7 7 7 7 7 7 7 8 8 8 0
1 8 8 8 8 8 8 8 8 8 8 8 0
1 8 8 8 8 8 8 8 9 9 9 9 0
1 9 9 9 9 9 9 9 9 9 9 9 0
1 9 9 9 9 9 9 9 9 10 10 10 0
1 10 10 10 10 10 10 10 10 10 10 10 0
1 10 10 10 11 11 11 11 11 11 11 11 0
1 11 11 11 11 11 11 11 11 11 11 11 0
1 11 11 11 11 11 11 12 12 12 12 12 0
1 12 12 12 12 12 12 12 12 12 12 12 0
1 12 12 12 12 13 13 13 13 13 13 13 0
1 13 13 13 13 13 13 13 13 13 13 13 0
1 13 13 13 13 13 13 14 14 14 14 14 0
1 14 14 14 14 14 14 14 14 14 14 14 0
1 14 14 14 14 14 15 15 15 15 15 15 0
1 15 15 15 15 15 15 15 15 15 15 15 0
1 16 16 16 16 16 16 16 16 16 16 16 0
1 16 16 16 16 16 17 17 17 17 17 17 0
1 17 17 17 17 17 17 17 17 17 17 17 0
1 17 17 17 17 17 17 17 17 17 18 18 0
1 18 18 18 18 18 18 18 18 18 18 18 0
1 18 18 18 18 18 18 18 18 19 19 19 0
1 19 19 19 19 19 19 19 19 19 19 19 0
1 19 19 19 19 20 20 20 20 20 20 20 0
1 20 20 20 20 20 20 20 20 20 20 20 0
1 20 20 20 21 21 21 21 21 21 21 21 0
1 21 21 21 21 21 21 21 21 21 21 22 0
1 22 22 22 22 22 22 22 22 22 22 22 0
1 22 22 22 22 22 22 22 22 22 22 22 0
1 23 23 23 23 23 23 23 23 23 23 23 0
1 23 23 24 24 24 24 24 24 24 24 24 0
1 24 24 24 24 24 24 24 24 24 24 24 0
1 24 24 24 25 25 25 25 25 25 25 25 0
1 25 25 25 25 25 26 26 26 26 26 26 0
1 26 26 26 26 26 26 26 26 26 27 27 0
1 27 27 27 27 27 27 27 27 27 27 27 0
1 28 28 28 28 28 28 28 28 28 28 28 0
1 28 28 28 28 28 28 28 28 28 28 28 0
1 28 29 29 29 29 29 29 29 29 29 29 0
1 29 29 29 29 29 29 29 29 29 29 30 0
1 30 30 30 30 30 30 30 30 30 30 30 0
1 30 30 30 30 30 30 30 30 31 31 31 0
1 31 31 31 31 31 31 31 31 31 31 31 0
1 31 31 31 31 31 31 31 32 32 32 32 0
1 32 32 32 32 32 32 32 32 32 33 33 0
1 33 33 33 33 33 33 33 33 33 33 34 0
1 34 34 34 34 34 34 34 34 34 34 34 0
1 34 34 34 34 35 35 35 35 35 35 35 0
1 35 35 35 35 35 35 35 35 35 36 36 0
1 36 36 36 36 36 36 36 36 36 36 36 0
1 36 36 36 36 36 36 36 37 37 37 37 0
1 37 37 37 37 37 37 37 37 37 37 37 0
1 37 37 37 37 37 37 37 38 38 38 38 0
1 38 38 38 38 38 38 38 38 38 38 38 0
1 38 39 39 39 39 39 39 39 39 39 39 0
1 39 39 39 39 39 40 40 40 40 40 40 0
1 40 40 40 40 40 40 40 40 40 40 40 0
1 40 40 40 40 40 40 40 41 41 41 41 0
1 41 41 41 41 41 41 42 42 42 42 42 0
1 42 42 42 42 42 42 42 42 42 42 42 0
1 42 43 43 43 43 43 43 43 43 43 43 0
1 43 43 43 44 44 44 44 44 44 44 44 0
1 44 44 44 44 44 44 44 44 44 44 44 0
1 44 44 44 45 45 45 45 45 45 45 45 0
1 45 45 45 45 45 45 45 45 46 46 46 0
1 46 46 46 46 46 46 46 46 46 46 46 0
1 46 46 46 46 46 46 46 46 46 47 47 0
1 47 47 47 47 47 47 47 47 47 47 47 0
1 47 47 47 47 47 47 47 47 48 48 48 0
1 48 48 48 48 48 48 48 48 48 48 48 0
1 48 48 48 49 49 49 49 49 49 49 49 0
1 49 49 49 49 49 49 49 49 49 49 49 0
1 49 49 49 50 50 50 50 50 50 50 50 0
1 50 50 50 50 50 50 50 50 50 50 51 0
1 51 51 51 51 51 51 51 51 51 51 51 0
1 52 52 52 52 52 52 52 52 52 52 52 0
1 52 52 52 52 52 52 52 52 52 53 53 0
1 53 53 53 53 53 53 53 53 53 53 53 0
1 53 54 54 54 54 54 54 54 54 54 54 0
1 54 54 54 54 54 54 54 54 55 55 55 0
1 55 55 55 55 55 55 55 55 55 55 55 0
1 55 55 55 55 56 56 56 56 56 56 56 0
1 56 56 56 56 56 56 56 56 56 56 56 0
1 56 56 56 56 57 57 57 57 57 57 57 0
1 57 57 57 57 57 57 57 57 57 57 57 0
1 57 57 58 58 58 58 58 58 58 58 58 0
1 58 58 58 58 58 58 58 58 59 59 59 0
1 59 59 59 59 59 59 59 59 59 59 59 0
1 60 60 60 60 60 60 60 60 60 60 60 0
1 60 60 60 60 60 60 60 60 60 60 60 0
1 61 61 61 61 61 61 61 61 61 61 61 0
1 61 61 61 61 61 61 61 61 61 61 61 0
1 61 62 62 62 62 62 62 62 62 62 62 0
1 62 62 62 62 62 62 62 62 62 62 62 0
1 63 63 63 63 63 63 63 63 63 63 63 0
1 63 63 63 63 63 64 64 64 64 64 64 0
1 64 64 64 64 64 64 64 64 64 64 64 0
1 64 65 65 65 65 65 65 65 65 65 65 0
1 65 65 65 65 65 65 65 65 65 65 65 0
1 65 65 66 66 66 66 66 66 66 66 66 0
1 66 66 66 66 66 66 66 66 66 66 67 0
1 67 67 67 67 67 67 67 67 67 67 67 0
1 67 67 68 68 68 68 68 68 68 68 68 0
1 68 68 68 68 68 68 68 68 68 69 69 0
1 69 69 69 69 69 69 69 69 69 69 69 0
1 69 69 69 69 69 69 69 70 70 70 70 0
1 70 70 70 70 70 70 70 70 70 70 70 0
1 70 70 71 71 71 71 71 71 71 71 71 0
1 71 71 71 71 71 71 71 71 71 72 72 0
1 72 72 72 72 72 72 72 72 72 72 72 0
1 72 72 72 72 72 72 72 72 72 72 73 0
1 73 73 73 73 73 73 73 73 73 73 73 0
1 73 73 74 74 74 74 74 74 74 74 74 0
1 74 74 74 74 74 75 75 75 75 75 75 0
1 75 75 75 75 75 75 75 75 76 76 76 0
1 76 76 76 76 76 76 76 76 76 76 76 0
1 76 76 76 77 77 77 77 77 77 77 77 0
1 77 77 77 77 77 77 77 77 77 77 78 0
1 78 78 78 78 78 78 78 78 78 78 78 0
1 78 78 78 78 79 79 79 79 79 79 79 0
1 79 79 79 79 79 79 79 79 79 79 79 0
1 80 80 80 80 80 80 80 80 80 80 80 0
1 80 80 80 80 80 80 80 80 80 80 80 0
1 81 81 81 81 81 81 81 81 81 81 81 0
1 81 81 81 81 81 81 81 81 81 81 81 0
1 82 82 82 82 82 82 82 82 82 82 82 0
1 82 82 82 82 82 82 82 83 83 83 83 0
1 83 83 83 83 84 84 84 84 84 84 84 0
1 84 84 84 84 84 84 84 84 84 84 84 0
1 84 84 84 84 84 85 85 85 85 85 85 0
1 85 85 85 85 85 85 85 85 85 85 86 0
1 86 86 86 86 86 86 86 86 86 86 86 0
1 86 86 87 87 87 87 87 87 87 87 87 0
1 87 87 87 87 87 87 87 88 88 88 88 0
1 88 88 88 88 88 88 88 88 88 88 88 0
1 89 89 89 89 89 89 89 89 89 89 89 0
1 89 89 89 89 89 89 90 90 90 90 90 0
1 90 90 90 90 90 90 90 91 91 91 91 0
1 91 91 91 91 91 91 91 91 91 91 91 0
1 91 91 91 91 92 92 92 92 92 92 92 0
1 92 92 92 92 92 92 92 92 92 92 93 0
1 93 93 93 93 93 93 93 93 93 93 93 0
1 93 93 93 93 93 93 94 94 94 94 94 0
1 94 94 94 94 94 94 94 94 94 94 94 0
1 94 94 94 95 95 95 95 95 95 95 95 0
1 95 95 95 95 95 95 95 96 96 96 96 0
1 96 96 96 96 96 96 96 96 96 96 96 0
1 96 97 97 97 97 97 97 97 97 97 97 0
1 97 97 97 97 97 97 97 97 97 98 98 0
1 98 98 98 98 98 98 98 98 98 98 98 0
1 98 98 98 98 98 98 98 98 98 99 99 0
1 99 99 99 99 99 99 99 99 99 99 99 0
1 99 99 99 99 99 99 100 100 100 100 100 0
1 100 100 100 100 100 100 100 100 100 100 100 0
1 100 100 100 100 100 100 100 0
1  0
1 59 160 227 245 249 264 354 359 364 367 398 0
1 449 508 512 515 557 577 624 648 660 674 697 0
1 733 780 814 1086 1113 1153 1169 1235 1373 1416 1427 0
1 1493 1494 1541 1546 1621 1680 1699 1751 1775 1897 1917 0
1 1982 0
1  0
1 11 20 167 208 243 281 287 296 299 325 364 0
1 408 425 494 507 509 698 754 757 859 939 961 0
1 1010 1021 1049 1051 1069 1128 1150 1186 1234 1329 1413 0
1 1531 1585 1610 1622 1687 1692 1701 1881 1896 1915 1938 0
1  0
1 45 113 130 155 225 297 308 346 400 522 566 0
1 683 780 786 852 863 933 1014 1031 1032 1070 1161 0
1 1181 1226 1276 1376 1381 1428 1476 1508 1720 1728 1749 0
1 1788 1798 1825 1955 0
1  0
1 127 313 355 411 474 490 498 531 655 660 707 0
1 736 776 867 882 893 1032 1067 1095 1217 1254 1270 0
1 1311 1313 1337 1366 1392 1432 1450 1497 1523 1569 1580 0
1 1651 1663 1668 1767 1782 1818 0
1  0
1 153 182 270 341 350 477 478 536 585 591 670 0
1 781 802 816 854 972 986 1028 1157 1180 1225 1230 0
1 1288 1367 1383 1409 1418 1478 1608 1677 1681 1708 1718 0
1 1737 1818 1824 1828 1932 0
1  0
1 173 190 195 202 250 266 355 361 431 527 623 0
1 737 739 848 915 935 950 987 989 1048 1136 1154 0
1 1192 1262 1536 1546 1660 1684 1742 1768 1772 1775 1784 0
1 1798 1802 1817 1991 0
1  0
1 50 74 75 143 154 181 203 273 348 409 415 0
1 430 536 551 639 752 755 903 924 925 1018 1033 0
